NAME: random_60_6
TYPE: TSP
COMMENT: random_60_6
DIMENSION: 60
EDGE_WEIGHT_TYPE: EUC_2D
NODE_COORD_SECTION
1 50 314
2 7 490
3 68 140
4 88 82
5 132 255
6 119 492
7 75 181
8 133 149
9 53 58
10 74 397
11 408 403
12 12 403
13 241 191
14 130 115
15 342 497
16 449 229
17 425 53
18 219 493
19 387 399
20 468 389
21 174 330
22 250 363
23 90 480
24 191 13
25 468 486
26 434 212
27 2 148
28 42 47
29 205 375
30 499 209
31 7 222
32 356 155
33 401 254
34 336 447
35 156 295
36 30 125
37 20 123
38 267 400
39 212 77
40 54 152
41 293 369
42 152 117
43 326 447
44 39 85
45 268 42
46 222 367
47 487 13
48 52 2
49 342 408
50 265 389
51 2 446
52 420 277
53 376 197
54 74 369
55 173 207
56 232 57
57 306 37
58 39 189
59 149 399
60 154 181
